104 129 194 79 29 168 112 198 47 
45 77 73 91 11 39 101 190 82 4 46 
78 155 90 66 6 139 12 70 162 154 173 96 
30 196 59 89 26 153 105 92 195 170 87 164 
113 88 84 122 128 99 53 144 178 
5 157 134 13 136 189 171 147 
146 159 117 35 151 22 52 145 163 183 
177 140 31 17 9 1 119 7 185 55 
27 50 68 24 172 124 94 174 115 65 
62 109 108 188 176 72 37 63 181 127 
93 137 19 192 74 121 193 95 158 34 131 
41 141 160 43 61 100 85 80 48 133 175 
126 2 67 107 76 120 54 18 98 111 81 
149 23 182 184 138 16 44 123 169 28 
148 86 116 57 166 165 33 36 118 60 
197 8 125 191 10 106 167 83 102 
32 143 25 15 110 20 179 64 97 
199 71 49 161 186 187 75 42 152 14 130 
38 3 58 135 132 40 156 21 150 
103 180 200 69 51 114 
142 56 

